(set-info :origin "SVCOMP13 benchmarks generated by Arie Gurfinkel")
(set-info :status sat)
(set-logic HORN)
(declare-fun cp-rel-entry () Bool)
(declare-fun cp-rel-bb1.i.i (Real Real Real Real) Bool)
(declare-fun cp-rel-bb1.i.i43.i.i () Bool)
(assert |cp-rel-entry|)
(assert (forall ((?A Real) (?B Real) (?C Real) (?D Real) (?E Bool) )(let (($x120549 (and |cp-rel-entry| (<= ?D 0.0) (>= ?C 1.0) (<= ?C 1.0) (>= ?B 1.0) (<= ?B 1.0) (>= ?A 0.0) (<= ?A 0.0) (= ?E true) (>= ?D 0.0))))
(=> $x120549 (|cp-rel-bb1.i.i| ?A ?B ?C ?D))))
)
(assert (forall ((?A Real) (?B Real) (?C Real) (?D Real) (?E Real) (?F Real) (?G Real) (?H Real) (?I Bool) (?J Bool) (?K Bool) (?L Bool) (?M Bool) (?N Bool) (?O Real) (?P Real) (?Q Bool) (?R Bool) (?S Bool) (?T Bool) (?U Bool) (?V Bool) (?W Real) (?X Real) (?Y Bool) (?Z Bool) (?A1 Bool) (?B1 Bool) (?C1 Bool) (?D1 Bool) (?E1 Bool) (?F1 Real) (?G1 Bool) (?H1 Bool) (?I1 Bool) (?J1 Bool) (?K1 Bool) (?L1 Bool) (?M1 Real) (?N1 Real) (?O1 Bool) (?P1 Bool) (?Q1 Bool) (?R1 Bool) (?S1 Bool) (?T1 Bool) (?U1 Bool) (?V1 Bool) (?W1 Bool) (?X1 Bool) (?Y1 Bool) (?Z1 Bool) (?A2 Bool) (?B2 Bool) (?C2 Bool) (?D2 Bool) (?E2 Real) (?F2 Real) (?G2 Real) (?H2 Real) (?I2 Bool) (?J2 Bool) (?K2 Bool) (?L2 Bool) (?M2 Bool) (?N2 Bool) (?O2 Real) (?P2 Bool) (?Q2 Real) (?R2 Real) (?S2 Bool) (?T2 Real) (?U2 Real) (?V2 Bool) (?W2 Real) (?X2 Bool) (?Y2 Bool) (?Z2 Bool) (?A3 Bool) (?B3 Bool) )(let (($x512351 (|cp-rel-bb1.i.i| ?E ?F ?G ?H)))
(let (($x489726 (= ?N2 (or ?B3 ?A3))))
(let (($x546775 (or (not ?I) (and ?J ?K (not ?L)))))
(let (($x432183 (or (not ?I) ?K)))
(let (($x323237 (not ?M)))
(let (($x231755 (or $x323237 (and ?I ?N (<= ?O ?P) (>= ?O ?P)) (and ?J ?Q ?L (<= ?O ?B) (>= ?O ?B)))))
(let (($x279878 (or $x323237 (and ?N (not ?Q)) (and ?Q (not ?N)))))
(let (($x171134 (or (not ?R) (and ?M ?S (not ?T)))))
(let (($x279462 (or (not ?R) ?S)))
(let (($x421126 (not ?U)))
(let (($x488890 (or $x421126 (and ?R ?V (<= ?W ?X) (>= ?W ?X)) (and ?M ?Y ?T (<= ?W ?A) (>= ?W ?A)))))
(let (($x169409 (or $x421126 (and ?V (not ?Y)) (and ?Y (not ?V)))))
(let (($x521381 (or (not ?Z) (and ?U ?A1 ?B1))))
(let (($x279245 (or (not ?Z) ?A1)))
(let (($x326027 (not ?C1)))
(let (($x416750 (or $x326027 (and ?Z ?D1 ?E1 (<= ?F1 ?C) (>= ?F1 ?C)) (and ?U ?G1 (not ?B1) (<= ?F1 1.0) (>= ?F1 1.0)))))
(let (($x607945 (or $x326027 (and ?D1 (not ?G1)) (and ?G1 (not ?D1)))))
(let (($x585066 (or (not ?H1) (and ?C1 ?I1 (not ?J1)))))
(let (($x410430 (or (not ?H1) ?I1)))
(let (($x253103 (or (not ?K1) (and ?H1 ?L1 (<= ?M1 ?N1) (>= ?M1 ?N1)) (and ?C1 ?O1 ?J1 (<= ?M1 ?O) (>= ?M1 ?O)))))
(let (($x372581 (or (not ?K1) (and ?L1 (not ?O1)) (and ?O1 (not ?L1)))))
(let (($x492561 (or (not ?P1) (and ?K1 ?Q1 (not ?R1)))))
(let (($x201659 (or (not ?P1) ?Q1)))
(let (($x564300 (or (not ?S1) (and ?P1 ?T1 ?J1))))
(let (($x300331 (or (not ?S1) ?T1)))
(let (($x389315 (or (not ?U1) (and ?P1 ?V1 (not ?J1)))))
(let (($x379568 (or (not ?U1) ?V1)))
(let (($x477834 (or (not ?W1) (and ?S1 ?X1 ?Y1))))
(let (($x754941 (or (not ?W1) ?X1)))
(let (($x623426 (or (not ?Z1) (and ?U1 ?A2 ?B2))))
(let (($x423454 (or (not ?Z1) ?A2)))
(let (($x488023 (and ?Z ?M2 (not ?E1) (<= ?E2 0.0) (>= ?E2 0.0) (<= ?F2 ?O) (>= ?F2 ?O) (<= ?G2 0.0) (>= ?G2 0.0))))
(let (($x866142 (>= ?G2 ?D)))
(let (($x54833 (<= ?G2 ?D)))
(let (($x181647 (>= ?F2 ?M1)))
(let (($x159082 (<= ?F2 ?M1)))
(let (($x649498 (>= ?E2 ?F1)))
(let (($x268213 (<= ?E2 ?F1)))
(let (($x476309 (and ?U1 ?K2 (not ?B2) $x268213 $x649498 $x159082 $x181647 (<= ?G2 0.0) (>= ?G2 0.0))))
(let (($x277876 (not ?C2)))
(let (($x261815 (or $x277876 (and ?W1 ?D2 $x268213 $x649498 $x159082 $x181647 (<= ?G2 ?H2) (>= ?G2 ?H2)) (and ?S1 ?I2 (not ?Y1) $x268213 $x649498 $x159082 $x181647 $x54833 $x866142) (and ?Z1 ?J2 $x268213 $x649498 $x159082 $x181647 $x54833 $x866142) $x476309 (and ?K1 ?L2 ?R1 $x268213 $x649498 $x159082 $x181647 $x54833 $x866142) $x488023)))
(let (($x126575 (or $x277876 (and ?D2 (not ?I2) (not ?J2) (not ?K2) (not ?L2) (not ?M2)) (and ?I2 (not ?D2) (not ?J2) (not ?K2) (not ?L2) (not ?M2)) (and ?J2 (not ?D2) (not ?I2) (not ?K2) (not ?L2) (not ?M2)) (and ?K2 (not ?D2) (not ?I2) (not ?J2) (not ?L2) (not ?M2)) (and ?L2 (not ?D2) (not ?I2) (not ?J2) (not ?K2) (not ?M2)) (and ?M2 (not ?D2) (not ?I2) (not ?J2) (not ?K2) (not ?L2)))))
(let (($x89165 (= ?C2 true)))
(let (($x263488 (= ?N2 true)))
(let (($x478352 (= ?L (= ?O2 0.0))))
(let (($x556361 (= ?Q2 (ite ?P2 1.0 0.0))))
(let (($x89833 (= ?T (= ?R2 0.0))))
(let (($x420617 (= ?X (ite ?S2 1.0 0.0))))
(let (($x121335 (= ?B1 (= ?T2 0.0))))
(let (($x905578 (= ?E1 (= ?U2 0.0))))
(let (($x873194 (= ?V2 (not (<= ?O 0.0)))))
(let (($x836036 (= ?W2 (+ (~ 1.0) ?O))))
(let (($x260210 (= ?N1 (ite ?V2 ?W2 ?O))))
(let (($x413838 (= ?R1 (= ?F1 0.0))))
(let (($x302742 (= ?Y1 (not (<= ?M1 1.0)))))
(let (($x504387 (= ?W 0.0)))
(let (($x296633 (= ?X2 $x504387)))
(let (($x868078 (= ?Y2 (= ?M1 0.0))))
(let (($x453296 (= ?B2 (and ?X2 ?Y2))))
(let (($x88284 (= ?Z2 $x504387)))
(let (($x864893 (= ?A3 $x504387)))
(let (($x425273 (= ?B3 (= ?G2 0.0))))
(let (($x356285 (and (|cp-rel-bb1.i.i| ?A ?B ?C ?D) $x425273 $x864893 (= ?H2 (ite ?Z2 1.0 ?D)) $x88284 $x453296 $x868078 $x296633 $x302742 $x413838 $x260210 $x836036 $x873194 (= ?J1 (= ?D 0.0)) $x905578 $x121335 $x420617 (= ?S2 (= ?A 0.0)) $x89833 (= ?P (+ ?Q2 ?B)) $x556361 (= ?P2 (not (<= 2.0 ?B))) $x478352 (>= ?H ?G2) (<= ?H ?G2) (>= ?G ?E2) (<= ?G ?E2) (>= ?F ?F2) (<= ?F ?F2) (>= ?E ?W) (<= ?E ?W) $x263488 $x89165 $x126575 $x261815 $x423454 $x623426 $x754941 $x477834 $x379568 $x389315 $x300331 $x564300 $x201659 $x492561 $x372581 $x253103 $x410430 $x585066 $x607945 $x416750 $x279245 $x521381 $x169409 $x488890 $x279462 $x171134 $x279878 $x231755 $x432183 $x546775 $x489726)))
(=> $x356285 $x512351)))))))))))))))))))))))))))))))))))))))))))))))))))))))))))))))))
)
(assert (forall ((?A Real) (?B Real) (?C Real) (?D Real) (?E Bool) (?F Bool) (?G Bool) (?H Bool) (?I Bool) (?J Bool) (?K Real) (?L Real) (?M Bool) (?N Bool) (?O Bool) (?P Bool) (?Q Bool) (?R Bool) (?S Real) (?T Real) (?U Bool) (?V Bool) (?W Bool) (?X Bool) (?Y Bool) (?Z Bool) (?A1 Bool) (?B1 Real) (?C1 Bool) (?D1 Bool) (?E1 Bool) (?F1 Bool) (?G1 Bool) (?H1 Bool) (?I1 Real) (?J1 Real) (?K1 Bool) (?L1 Bool) (?M1 Bool) (?N1 Bool) (?O1 Bool) (?P1 Bool) (?Q1 Bool) (?R1 Bool) (?S1 Bool) (?T1 Bool) (?U1 Bool) (?V1 Bool) (?W1 Bool) (?X1 Bool) (?Y1 Bool) (?Z1 Bool) (?A2 Real) (?B2 Real) (?C2 Real) (?D2 Real) (?E2 Bool) (?F2 Bool) (?G2 Bool) (?H2 Bool) (?I2 Bool) (?J2 Bool) (?K2 Real) (?L2 Bool) (?M2 Real) (?N2 Real) (?O2 Bool) (?P2 Real) (?Q2 Real) (?R2 Bool) (?S2 Real) (?T2 Bool) (?U2 Bool) (?V2 Bool) (?W2 Bool) (?X2 Bool) )(let (($x489726 (= ?J2 (or ?X2 ?W2))))
(let (($x546775 (or (not ?E) (and ?F ?G (not ?H)))))
(let (($x432183 (or (not ?E) ?G)))
(let (($x323237 (not ?I)))
(let (($x359926 (or $x323237 (and ?E ?J (<= ?K ?L) (>= ?K ?L)) (and ?F ?M ?H (<= ?K ?B) (>= ?K ?B)))))
(let (($x279878 (or $x323237 (and ?J (not ?M)) (and ?M (not ?J)))))
(let (($x171134 (or (not ?N) (and ?I ?O (not ?P)))))
(let (($x279462 (or (not ?N) ?O)))
(let (($x421126 (not ?Q)))
(let (($x214931 (or $x421126 (and ?N ?R (<= ?S ?T) (>= ?S ?T)) (and ?I ?U ?P (<= ?S ?A) (>= ?S ?A)))))
(let (($x169409 (or $x421126 (and ?R (not ?U)) (and ?U (not ?R)))))
(let (($x521381 (or (not ?V) (and ?Q ?W ?X))))
(let (($x279245 (or (not ?V) ?W)))
(let (($x326027 (not ?Y)))
(let (($x636250 (or $x326027 (and ?V ?Z ?A1 (<= ?B1 ?C) (>= ?B1 ?C)) (and ?Q ?C1 (not ?X) (<= ?B1 1.0) (>= ?B1 1.0)))))
(let (($x607945 (or $x326027 (and ?Z (not ?C1)) (and ?C1 (not ?Z)))))
(let (($x585066 (or (not ?D1) (and ?Y ?E1 (not ?F1)))))
(let (($x410430 (or (not ?D1) ?E1)))
(let (($x253103 (or (not ?G1) (and ?D1 ?H1 (<= ?I1 ?J1) (>= ?I1 ?J1)) (and ?Y ?K1 ?F1 (<= ?I1 ?K) (>= ?I1 ?K)))))
(let (($x372581 (or (not ?G1) (and ?H1 (not ?K1)) (and ?K1 (not ?H1)))))
(let (($x492561 (or (not ?L1) (and ?G1 ?M1 (not ?N1)))))
(let (($x201659 (or (not ?L1) ?M1)))
(let (($x564300 (or (not ?O1) (and ?L1 ?P1 ?F1))))
(let (($x300331 (or (not ?O1) ?P1)))
(let (($x389315 (or (not ?Q1) (and ?L1 ?R1 (not ?F1)))))
(let (($x379568 (or (not ?Q1) ?R1)))
(let (($x477834 (or (not ?S1) (and ?O1 ?T1 ?U1))))
(let (($x754941 (or (not ?S1) ?T1)))
(let (($x623426 (or (not ?V1) (and ?Q1 ?W1 ?X1))))
(let (($x423454 (or (not ?V1) ?W1)))
(let (($x488023 (and ?V ?I2 (not ?A1) (<= ?A2 0.0) (>= ?A2 0.0) (<= ?B2 ?K) (>= ?B2 ?K) (<= ?C2 0.0) (>= ?C2 0.0))))
(let (($x808310 (>= ?C2 ?D)))
(let (($x545028 (<= ?C2 ?D)))
(let (($x181647 (>= ?B2 ?I1)))
(let (($x159082 (<= ?B2 ?I1)))
(let (($x649498 (>= ?A2 ?B1)))
(let (($x268213 (<= ?A2 ?B1)))
(let (($x476309 (and ?Q1 ?G2 (not ?X1) $x268213 $x649498 $x159082 $x181647 (<= ?C2 0.0) (>= ?C2 0.0))))
(let (($x277876 (not ?Y1)))
(let (($x901674 (or $x277876 (and ?S1 ?Z1 $x268213 $x649498 $x159082 $x181647 (<= ?C2 ?D2) (>= ?C2 ?D2)) (and ?O1 ?E2 (not ?U1) $x268213 $x649498 $x159082 $x181647 $x545028 $x808310) (and ?V1 ?F2 $x268213 $x649498 $x159082 $x181647 $x545028 $x808310) $x476309 (and ?G1 ?H2 ?N1 $x268213 $x649498 $x159082 $x181647 $x545028 $x808310) $x488023)))
(let (($x126575 (or $x277876 (and ?Z1 (not ?E2) (not ?F2) (not ?G2) (not ?H2) (not ?I2)) (and ?E2 (not ?Z1) (not ?F2) (not ?G2) (not ?H2) (not ?I2)) (and ?F2 (not ?Z1) (not ?E2) (not ?G2) (not ?H2) (not ?I2)) (and ?G2 (not ?Z1) (not ?E2) (not ?F2) (not ?H2) (not ?I2)) (and ?H2 (not ?Z1) (not ?E2) (not ?F2) (not ?G2) (not ?I2)) (and ?I2 (not ?Z1) (not ?E2) (not ?F2) (not ?G2) (not ?H2)))))
(let (($x89165 (= ?Y1 true)))
(let (($x478352 (= ?H (= ?K2 0.0))))
(let (($x556361 (= ?M2 (ite ?L2 1.0 0.0))))
(let (($x89833 (= ?P (= ?N2 0.0))))
(let (($x420617 (= ?T (ite ?O2 1.0 0.0))))
(let (($x121335 (= ?X (= ?P2 0.0))))
(let (($x905578 (= ?A1 (= ?Q2 0.0))))
(let (($x873194 (= ?R2 (not (<= ?K 0.0)))))
(let (($x836036 (= ?S2 (+ (~ 1.0) ?K))))
(let (($x260210 (= ?J1 (ite ?R2 ?S2 ?K))))
(let (($x413838 (= ?N1 (= ?B1 0.0))))
(let (($x302742 (= ?U1 (not (<= ?I1 1.0)))))
(let (($x504387 (= ?S 0.0)))
(let (($x296633 (= ?T2 $x504387)))
(let (($x868078 (= ?U2 (= ?I1 0.0))))
(let (($x453296 (= ?X1 (and ?T2 ?U2))))
(let (($x88284 (= ?V2 $x504387)))
(let (($x864893 (= ?W2 $x504387)))
(let (($x425273 (= ?X2 (= ?C2 0.0))))
(let (($x512351 (|cp-rel-bb1.i.i| ?A ?B ?C ?D)))
(let (($x531734 (and $x512351 $x425273 $x864893 (= ?D2 (ite ?V2 1.0 ?D)) $x88284 $x453296 $x868078 $x296633 $x302742 $x413838 $x260210 $x836036 $x873194 (= ?F1 (= ?D 0.0)) $x905578 $x121335 $x420617 (= ?O2 (= ?A 0.0)) $x89833 (= ?L (+ ?M2 ?B)) $x556361 (= ?L2 (not (<= 2.0 ?B))) $x478352 (not (= ?J2 true)) $x89165 $x126575 $x901674 $x423454 $x623426 $x754941 $x477834 $x379568 $x389315 $x300331 $x564300 $x201659 $x492561 $x372581 $x253103 $x410430 $x585066 $x607945 $x636250 $x279245 $x521381 $x169409 $x214931 $x279462 $x171134 $x279878 $x359926 $x432183 $x546775 $x489726)))
(=> $x531734 |cp-rel-bb1.i.i43.i.i|))))))))))))))))))))))))))))))))))))))))))))))))))))))))))))))))
)
(assert (not cp-rel-bb1.i.i43.i.i))
(check-sat)
